37 37
2 7
6 7
5 6
8 1
8 2
3 5
1 7
2 2
6 6
4 10
4 5
3 9
2 4
10 1
9 3
2 6
1 2
8 1
5 8
1 2
3 2
6 3
9 2
6 9
10 1
7 4
7 10
9 3
9 4
5 8
6 2
7 2
7 7
10 3
10 10
4 4
4 7
15 20 51
14 16 69
18 15 71
13 13 53
18 20 62
12 17 73
20 15 82
16 16 79
14 12 84
18 17 95
11 19 75
18 14 89
11 14 97
18 11 88
12 12 64
16 15 94
11 19 52
15 19 82
17 12 90
10 16 67
20 15 92
17 12 81
11 17 83
20 11 62
10 11 64
16 20 50
10 17 55
19 19 87
14 17 65
18 15 98
13 10 51
13 11 89
14 11 59
18 12 82
15 20 67
10 10 93
10 18 91
